InboundTrucks  = 20;
OutboundTrucks = 20;
InboundDoors   = 8;
OutboundDoors  = 8;
ReleaseTime    = [110,108,7,11,10,46,106,21,94,103,85,109,39,32,77,27,77,4,74,87];
UnloadTime     = [26,29,23,17,14,14,18,25,14,30,28,29,12,32,23,26,11,17,17,35];
LoadTime       = [6,18,5,9,10,14,19,13,7,19,14,7,8,18,7,7,17,15,9,18];
TransferTime   = [| 5,0,0,1,0,0,3,0,0,3,0,0,1,0,0,0,0,0,4,0 | 0,1,0,0,3,0,0,3,0,7,5,0,0,0,0,0,3,6,0,3 | 0,0,0,0,0,2,0,0,3,0,0,2,0,0,4,0,0,5,0,10 | 2,0,0,5,0,0,3,0,0,4,0,0,0,0,0,3,0,0,4,0 | 8,3,0,0,1,0,0,5,0,0,3,0,0,2,0,0,0,0,0,1 | 0,0,4,0,0,3,0,0,0,0,0,1,0,0,5,0,12,4,0,0 | 4,0,0,0,0,0,4,0,0,3,0,0,1,0,0,0,0,0,4,0 | 0,4,0,0,0,0,0,2,0,0,0,0,0,0,0,0,3,0,0,4 | 0,0,4,0,0,1,0,0,4,0,0,4,0,0,0,0,0,0,0,0 | 1,0,0,0,0,0,5,0,0,1,0,0,1,0,0,3,0,0,2,0 | 0,2,0,0,2,11,0,5,0,0,4,0,0,2,0,0,4,0,0,2 | 0,0,4,0,0,3,0,0,4,6,0,2,11,0,0,0,0,2,0,0 | 4,0,0,3,0,0,2,0,0,5,7,0,4,0,0,0,0,0,5,0 | 0,3,0,0,3,0,0,3,0,0,5,0,0,4,0,0,0,0,0,0 | 0,0,0,0,0,4,0,0,5,0,0,1,0,0,3,0,0,3,0,0 | 3,0,0,0,0,0,1,0,0,5,0,0,5,0,0,3,0,0,0,0 | 0,3,0,0,4,0,0,3,0,0,4,0,0,2,0,0,0,0,0,4 | 0,0,3,0,0,4,0,0,5,0,0,3,0,0,5,0,0,4,0,0 | 5,0,0,1,0,0,4,0,0,0,0,0,3,0,0,4,0,0,2,0 | 11,2,0,0,4,0,0,0,0,0,2,0,0,0,0,0,4,0,0,2 |];
